0 2653
1 2653
2 2653
3 2631
4 2371
5 2371
6 2371
7 2188
8 2188
9 2097
10 2097
11 2084
12 1996
13 1996
14 1996
15 1996
16 1972
17 1972
18 1972
19 1914
20 1814
21 1814
22 1814
23 1771
24 1771
25 1738
26 1738
27 1738
28 1738
29 1738
30 1724
31 1724
32 1724
33 1724
34 1724
35 1712
36 1703
37 1703
38 1655
39 1639
40 1573
41 1573
42 1573
43 1573
44 1573
45 1573
46 1573
47 1573
48 1573
49 1573
50 1573
51 1573
52 1573
53 1573
54 1573
55 1573
56 1573
57 1573
58 1573
59 1573
60 1573
61 1556
62 1556
63 1556
64 1556
65 1556
66 1556
67 1556
68 1515
69 1515
70 1515
71 1494
72 1494
73 1494
74 1494
75 1494
76 1494
77 1494
78 1494
79 1494
80 1494
81 1494
82 1494
83 1494
84 1494
85 1494
86 1494
87 1494
88 1492
89 1492
90 1470
91 1470
92 1470
93 1470
94 1470
95 1470
96 1470
97 1470
98 1470
99 1470
100 1470
101 1470
102 1470
103 1470
104 1448
105 1448
106 1448
107 1448
108 1448
109 1448
110 1448
111 1448
112 1448
113 1448
114 1448
115 1448
116 1448
117 1440
118 1432
119 1432
120 1432
121 1430
122 1430
123 1420
124 1420
125 1420
126 1420
127 1420
128 1420
129 1420
130 1420
131 1420
132 1420
133 1420
134 1420
135 1420
136 1420
137 1416
138 1400
139 1388
140 1388
141 1388
142 1388
143 1388
144 1388
145 1388
146 1388
147 1388
148 1388
149 1385
150 1384
151 1384
152 1384
153 1384
154 1384
155 1384
156 1384
157 1384
158 1384
159 1384
160 1378
161 1372
162 1372
163 1372
164 1372
165 1372
166 1370
167 1370
168 1370
169 1370
170 1359
171 1359
172 1359
173 1356
174 1356
175 1356
176 1356
177 1356
178 1356
179 1356
180 1356
181 1356
182 1333
183 1333
184 1333
185 1333
186 1333
187 1333
188 1333
189 1333
190 1333
191 1333
192 1333
193 1333
194 1333
195 1333
196 1333
197 1330
198 1330
199 1330
200 1330
201 1330
202 1330
203 1328
204 1328
205 1328
206 1328
207 1322
208 1322
209 1322
210 1322
211 1319
212 1319
213 1319
214 1318
215 1318
216 1309
217 1309
218 1309
219 1309
220 1306
221 1306
222 1306
223 1306
224 1298
225 1298
226 1298
227 1291
228 1291
229 1291
230 1291
231 1290
232 1290
233 1290
234 1282
235 1282
236 1282
237 1282
238 1282
239 1282
240 1282
241 1272
242 1271
243 1271
244 1270
245 1270
246 1270
247 1270
248 1270
249 1262
250 1262
251 1262
252 1262
253 1262
254 1262
255 1261
256 1261
257 1261
258 1261
259 1261
260 1261
261 1261
262 1261
263 1229
264 1229
265 1229
266 1229
267 1229
268 1229
269 1229
270 1229
271 1229
272 1229
273 1229
274 1229
275 1229
276 1229
277 1229
278 1229
279 1229
280 1229
281 1226
282 1226
283 1226
284 1226
285 1226
286 1226
287 1226
288 1226
289 1226
290 1226
291 1226
292 1225
293 1225
294 1225
295 1225
296 1225
297 1225
298 1225
299 1225
300 1224
301 1224
302 1224
303 1224
304 1224
305 1224
306 1224
307 1224
308 1223
309 1223
310 1223
311 1223
312 1223
313 1223
314 1222
315 1219
316 1219
317 1219
318 1219
319 1219
320 1219
321 1219
322 1219
323 1219
324 1219
325 1219
326 1219
327 1219
328 1219
329 1219
330 1219
331 1219
332 1219
333 1219
334 1219
335 1219
336 1219
337 1219
338 1218
339 1218
340 1218
341 1218
342 1218
343 1218
344 1218
345 1218
346 1218
347 1218
348 1218
349 1218
350 1214
351 1213
352 1213
353 1213
354 1213
355 1213
356 1213
357 1213
358 1213
359 1213
360 1213
361 1213
362 1213
363 1213
364 1213
365 1213
366 1213
367 1213
368 1213
369 1213
370 1213
371 1213
372 1213
373 1213
374 1212
375 1212
376 1212
377 1212
378 1212
379 1212
380 1212
381 1212
382 1212
383 1212
384 1212
385 1212
386 1212
387 1212
388 1212
389 1212
390 1212
391 1212
392 1210
393 1210
394 1210
395 1210
396 1210
397 1209
398 1209
399 1209
400 1209
401 1209
402 1209
403 1209
404 1209
405 1209
406 1209
407 1209
408 1209
409 1209
410 1209
411 1209
412 1208
413 1208
414 1206
415 1206
416 1206
417 1206
418 1206
419 1206
420 1206
421 1186
422 1186
423 1186
424 1186
425 1186
426 1186
427 1186
428 1186
429 1186
430 1186
431 1186
432 1186
433 1186
434 1186
435 1186
436 1186
437 1186
438 1186
439 1186
440 1186
441 1186
442 1186
443 1186
444 1186
445 1186
446 1114
447 1114
448 1114
449 1114
450 1114
451 1114
452 1114
453 1114
454 1114
455 1114
456 1114
457 1114
458 1114
459 1114
460 1114
461 1114
462 1114
463 1114
464 1114
465 1114
466 1114
467 1114
468 1114
469 1114
470 1114
471 1114
472 1114
473 1114
474 1114
475 1114
476 1114
477 1114
478 1109
479 1109
480 1106
481 1106
482 1106
483 1106
484 1104
485 1104
486 1104
487 1104
488 1104
489 1104
490 1104
491 1104
492 1104
493 1104
494 1104
495 1104
496 1100
497 1100
498 1100
499 1100
500 1100
501 1100
502 1100
503 1100
504 1100
505 1100
506 1100
507 1100
508 1100
509 1100
510 1100
511 1100
512 1100
513 1100
514 1100
515 1100
516 1100
517 1100
518 1100
519 1099
520 1099
521 1099
522 1099
523 1099
524 1099
525 1099
526 1096
527 1096
528 1096
529 1096
530 1096
531 1096
532 1096
533 1096
534 1096
535 1095
536 1095
537 1095
538 1095
539 1095
540 1095
541 1095
542 1095
543 1095
544 1095
545 1095
546 1095
547 1095
548 1095
549 1095
550 1095
551 1095
552 1095
553 1095
554 1095
555 1095
556 1095
557 1095
558 1095
559 1095
560 1095
561 1095
562 1095
563 1095
564 1095
565 1095
566 1095
567 1095
568 1095
569 1095
570 1095
571 1095
572 1095
573 1095
574 1095
575 1095
576 1095
577 1095
578 1095
579 1095
580 1095
581 1095
582 1095
583 1095
584 1095
585 1095
586 1095
587 1095
588 1095
589 1095
590 1095
591 1095
592 1095
593 1095
594 1095
595 1095
596 1095
597 1095
598 1095
599 1095
600 1095
601 1095
602 1095
603 1095
604 1095
605 1095
606 1095
607 1095
608 1095
609 1095
610 1095
611 1095
612 1095
613 1095
614 1095
615 1095
616 1095
617 1095
618 1095
619 1095
620 1095
621 1095
622 1095
623 1095
624 1095
625 1095
626 1095
627 1095
628 1095
629 1095
630 1095
631 1095
632 1095
633 1095
634 1095
635 1095
636 1095
637 1095
638 1095
639 1095
640 1095
641 1095
642 1095
643 1095
644 1095
645 1095
646 1095
647 1095
648 1095
649 1095
650 1095
651 1095
652 1095
653 1095
654 1095
655 1095
656 1095
657 1095
658 1095
659 1095
660 1095
661 1095
662 1095
663 1095
664 1095
665 1095
666 1095
667 1095
668 1095
669 1095
670 1095
671 1095
672 1095
673 1095
674 1095
675 1095
676 1095
677 1095
678 1095
679 1095
680 1095
681 1095
682 1095
683 1095
684 1095
685 1095
686 1095
687 1095
688 1095
689 1095
690 1095
691 1095
692 1095
693 1095
694 1095
695 1095
696 1095
697 1095
698 1095
699 1095
700 1095
701 1095
702 1095
703 1095
704 1095
705 1095
706 1095
707 1095
708 1095
709 1095
710 1095
711 1095
712 1095
713 1095
714 1095
715 1095
716 1095
717 1095
718 1095
719 1095
720 1095
721 1095
722 1095
723 1095
724 1095
725 1095
726 1095
727 1095
728 1095
729 1095
730 1095
731 1095
732 1095
733 1095
734 1095
735 1095
736 1095
737 1095
738 1095
739 1095
740 1095
741 1095
742 1095
743 1095
744 1095
745 1095
746 1095
747 1095
748 1095
749 1095
750 1095
751 1095
752 1095
753 1095
754 1095
755 1095
756 1095
757 1095
758 1095
759 1095
760 1095
761 1095
762 1095
763 1095
764 1095
765 1095
766 1095
767 1095
768 1095
769 1095
770 1095
771 1095
772 1095
773 1095
774 1095
775 1095
776 1095
777 1095
778 1095
779 1095
780 1095
781 1095
782 1095
783 1095
784 1095
785 1095
786 1095
787 1095
788 1095
789 1095
790 1095
791 1095
792 1095
793 1095
794 1095
795 1095
796 1095
797 1095
798 1095
799 1095
800 1095
801 1095
802 1095
803 1095
804 1095
805 1095
806 1095
807 1095
808 1095
809 1095
810 1095
811 1095
812 1095
813 1095
814 1095
815 1095
816 1095
817 1095
818 1095
819 1095
820 1095
821 1095
822 1095
823 1095
824 1095
825 1095
826 1095
827 1095
828 1095
829 1095
830 1095
831 1095
832 1095
833 1095
834 1095
835 1095
836 1095
837 1095
838 1095
839 1095
840 1095
841 1095
842 1095
843 1095
844 1095
845 1095
846 1095
847 1095
848 1095
849 1095
850 1095
851 1095
852 1095
853 1095
854 1095
855 1095
856 1095
857 1095
858 1095
859 1095
860 1095
861 1095
862 1095
863 1095
864 1095
865 1095
866 1095
867 1095
868 1095
869 1095
870 1095
871 1095
872 1095
873 1095
874 1095
875 1095
876 1095
877 1095
878 1095
879 1095
880 1095
881 1095
882 1095
883 1095
884 1095
885 1095
886 1095
887 1095
888 1095
889 1095
890 1095
891 1095
892 1095
893 1095
894 1095
895 1095
896 1095
897 1095
898 1095
899 1095
900 1095
901 1095
902 1095
903 1095
904 1095
905 1095
906 1095
907 1095
908 1095
909 1095
910 1095
911 1095
912 1095
913 1095
914 1095
915 1095
916 1095
917 1095
918 1095
919 1095
920 1095
921 1092
922 1092
923 1092
924 1092
925 1092
926 1092
927 1092
928 1092
929 1092
930 1092
931 1092
932 1092
933 1092
934 1092
935 1092
936 1092
937 1092
938 1092
939 1092
940 1092
941 1092
942 1092
943 1092
944 1092
945 1092
946 1092
947 1092
948 1092
949 1092
950 1092
951 1092
952 1092
953 1092
954 1092
955 1092
956 1092
957 1092
958 1092
959 1092
960 1092
961 1092
962 1092
963 1092
964 1092
965 1092
966 1092
967 1092
968 1092
969 1092
970 1092
971 1092
972 1092
973 1092
974 1092
975 1092
976 1092
977 1092
978 1092
979 1092
980 1092
981 1092
982 1092
983 1092
984 1092
985 1092
986 1092
987 1092
988 1092
989 1092
990 1092
991 1092
992 1092
993 1092
994 1092
995 1092
996 1092
997 1092
998 1092
999 1092
Best: [[5,24,23,11,31,14],
       [17,26,36,8],
       [28,33,16,12,13,22,34,2,21],
       [15,4,6,9,7],
       [27,29,3,10,20,32],
       [25,19,18,35,37,30]], fitness: 1092
